0001 12
0002 12
0003 9
0004 16
0005 1
0006 0
0007 0
0008 19
0009 8
0010 5
0011 3
0012 1
0013 1
0014 3
0015 2
0016 0
0017 3
0018 4
0019 5
0020 2
0021 8
0022 0
0023 1
0024 5
0025 16
0026 19
0027 1
0028 14
0029 17
0030 0
0031 4
0032 1
0033 10
0034 2
0035 16
0036 6
0037 1
0038 3
0039 12
0040 10
0041 12
0042 2
0043 1
0044 16
0045 3
0046 8
0047 5
0048 11
0049 0
0050 0
0051 4
0052 6
0053 1
0054 5
0055 16
0056 5
0057 8
0058 0
0059 2
0060 2
0061 2
0062 0
0063 2
0064 3
0065 1
0066 10
0067 2
0068 2
0069 0
0070 0
0071 1
0072 1
0073 1
0074 5
0075 1
0076 1
0077 3
0078 1
0079 0
0080 0
0081 8
0082 2
0083 0
0084 13
0085 0
0086 13
0087 13
0088 0
0089 8
0090 3
0091 14
0092 2
0093 19
0094 10
0095 0
0096 12
0097 17
0098 0
0099 12
0100 15
0101 14
0102 13
0103 9
0104 2
0105 2
0106 3
0107 1
0108 0
0109 2
0110 2
0111 3
0112 3
0113 1
0114 1
0115 17
0116 8
0117 13
0118 10
0119 17
0120 11
0121 18
0122 0
0123 16
0124 12
0125 1
0126 1
0127 0
0128 4
0129 1
0130 0
0131 0
0132 1
0133 8
0134 2
0135 2
0136 3
0137 2
0138 0
0139 1
0140 11
0141 11
0142 10
0143 9
0144 19
0145 2
0146 12
0147 4
0148 13
0149 1
0150 2
0151 11
0152 0
0153 10
0154 2
0155 1
0156 16
0157 5
0158 3
0159 1
0160 2
0161 3
0162 0
0163 1
0164 1
0165 0
0166 13
0167 3
0168 11
0169 2
0170 4
0171 2
0172 4
0173 0
0174 3
0175 3
0176 8
0177 12
0178 1
0179 4
0180 0
0181 14
0182 2
0183 3
0184 8
0185 12
0186 9
0187 9
0188 17
0189 14
0190 14
0191 5
0192 4
0193 6
0194 4
0195 0
0196 1
0197 0
0198 9
0199 10
0200 5
0201 1
0202 14
0203 2
0204 0
0205 0
0206 0
0207 0
0208 9
0209 9
0210 9
0211 9
0212 9
0213 2
0214 2
0215 4
0216 0
0217 9
0218 2
0219 1
0220 1
0221 4
0222 2
0223 2
0224 8
0225 6
0226 8
0227 0
0228 18
0229 12
0230 16
0231 1
0232 2
0233 0
0234 1
0235 1
0236 4
0237 2
0238 4
0239 1
0240 2
0241 16
0242 4
0243 3
0244 3
0245 17
0246 0
0247 11
0248 5
0249 8
0250 5
0251 5
0252 6
0253 5
0254 5
0255 7
0256 5
0257 7
0258 7
0259 7
0260 8
0261 2
0262 13
0263 4
0264 8
0265 12
0266 3
0267 10
0268 17
0269 16
0270 6
0271 0
0272 4
0273 10
0274 8
0275 11
0276 13
0277 15
0278 12
0279 6
0280 0
0281 1
0282 0
0283 2
0284 3
0285 0
0286 2
0287 2
0288 13
0289 19
0290 0
0291 14
0292 19
0293 19
0294 17
0295 1
0296 19
0297 4
0298 14
0299 12
0300 6
0301 9
0302 0
0303 4
0304 5
0305 2
0306 4
0307 1
0308 0
0309 2
0310 1
0311 0
0312 1
0313 1
0314 0
0315 12
0316 8
0317 10
0318 13
0319 0
0320 3
0321 14
0322 17
0323 3
0324 1
0325 12
0326 12
0327 2
0328 13
0329 0
0330 0
0331 14
0332 16
0333 3
0334 10
0335 0
0336 7
0337 7
0338 8
0339 0
0340 15
0341 6
0342 10
0343 8
0344 9
0345 3
0346 2
0347 1
0348 0
0349 0
0350 3
0351 2
0352 8
0353 11
0354 2
0355 0
0356 0
0357 0
0358 2
0359 10
0360 15
0361 11
0362 3
0363 9
0364 16
0365 3
0366 10
0367 2
0368 3
0369 0
0370 4
0371 10
0372 0
0373 0
0374 2
0375 0
0376 3
0377 1
0378 13
0379 4
0380 1
0381 0
0382 14
0383 8
0384 8
0385 19
0386 19
0387 3
0388 5
0389 7
0390 3
0391 1
0392 16
0393 16
0394 16
0395 15
0396 16
0397 15
0398 7
0399 16
0400 8
0401 17
0402 14
0403 0
0404 4
0405 19
0406 8
0407 1
0408 0
0409 1
0410 5
0411 0
0412 1
0413 0
0414 0
0415 12
0416 2
0417 16
0418 12
0419 3
0420 1
0421 8
0422 2
0423 5
0424 8
0425 0
0426 2
0427 1
0428 0
0429 3
0430 13
0431 8
0432 14
0433 2
0434 17
0435 1
0436 12
0437 16
0438 0
0439 0
0440 6
0441 4
0442 13
0443 0
0444 1
0445 3
0446 2
0447 1
0448 11
0449 0
0450 16
0451 6
0452 18
0453 14
0454 1
0455 3
0456 0
0457 0
0458 0
0459 4
0460 1
0461 18
